Optimal - objective value 19.00000000
     12 x_0_13                  1                       1
     13 x_0_14                  1                       1
     35 x_2_5                   1                       4
     36 x_2_6                   1                       1
     45 x_2_15                  1                       2
     72 x_4_15                  1                       1
     76 x_5_7                   1                       1
    104 x_7_14                  1                       2
    110 x_8_11                  1                       1
    133 x_11_13                 1                       3
    138 x_12_13                 1                       2
    177 f_0_13                5.5                       0
    178 f_13_0                2.5                       0
    179 f_0_14                6.5                       0
    180 f_14_0                1.5                       0
    223 f_2_5                   3                       0
    224 f_5_2                   5                       0
    225 f_2_6                 4.5                       0
    226 f_6_2                 3.5                       0
    243 f_2_15                4.5                       0
    244 f_15_2                3.5                       0
    297 f_4_15                3.5                       0
    298 f_15_4                4.5                       0
    305 f_5_7                 2.5                       0
    306 f_7_5                 5.5                       0
    361 f_7_14                  2                       0
    362 f_14_7                  6                       0
    373 f_8_11                3.5                       0
    374 f_11_8                4.5                       0
    419 f_11_13                 3                       0
    420 f_13_11                 5                       0
    429 f_12_13               3.5                       0
    430 f_13_12               4.5                       0
